[2026-03-23T16:05:55.256Z] Pipeline "set_exp_3_exp_3_n029_c005_g001" → 2026_03_23_16_05_55_set_exp_3_exp_3_n029_c005_g001_max.sol
Set parameter WLSAccessID
Set parameter WLSSecret
Set parameter LicenseID to value 2792458
Set parameter LogFile to value "gurobi.log"
Using license file /root/gurobi.lic
Academic license 2792458 - for non-commercial use only - registered to an___@studenti.unipg.it

Gurobi Optimizer version 13.0.1 build v13.0.1rc0 (linux64 - "Ubuntu 24.04.4 LTS")
Copyright (c) 2026, Gurobi Optimization, LLC

Warning: Duplicate section found (read 'binary') - Is a variable name equal to an LP file format keyword?
Warning: Duplicate section found (read 'binary') - Is a variable name equal to an LP file format keyword?
Warning: Duplicate section found (read 'binary') - Is a variable name equal to an LP file format keyword?
Warning: Duplicate section found (read 'binary') - Is a variable name equal to an LP file format keyword?
Warning: Duplicate section found (read 'binary') - Is a variable name equal to an LP file format keyword?
Warning: Duplicate section found (read 'binary') - Is a variable name equal to an LP file format keyword?
Warning: Duplicate section found (read 'binary') - Is a variable name equal to an LP file format keyword?
Warning: Duplicate section found (read 'binary') - Is a variable name equal to an LP file format keyword?
Warning: Duplicate section found (read 'binary') - Is a variable name equal to an LP file format keyword?
Warning: Duplicate section found (read 'binary') - Is a variable name equal to an LP file format keyword?
Warning: Further warnings of this type will be omitted.
Read LP format model from file /root/bgw/data/uploads/2026_03_23_16_05_55_set_exp_3_exp_3_n029_c005_g001_max.lp
Reading time = 0.01 seconds
: 8322 rows, 633 columns, 24745 nonzeros

Using Gurobi shared library /opt/gurobi1301/linux64/lib/libgurobi.so.13.0.1

CPU model: AMD EPYC-Genoa Processor, instruction set [SSE2|AVX|AVX2|AVX512]
Thread count: 16 physical cores, 16 logical processors, using up to 16 threads

Academic license 2792458 - for non-commercial use only - registered to an___@studenti.unipg.it
Optimize a model with 8322 rows, 633 columns and 24745 nonzeros (Max)
Model fingerprint: 0xd1704beb
Model has 5 linear objective coefficients
Variable types: 34 continuous, 599 integer (599 binary)
Coefficient statistics:
  Matrix range     [1e+00, 3e+01]
  Objective range  [1e+00, 1e+00]
  Bounds range     [1e+00, 1e+00]
  RHS range        [1e+00, 3e+01]

Found heuristic solution: objective 5.0000000
Presolve removed 976 rows and 203 columns
Presolve time: 0.05s
Presolved: 7346 rows, 430 columns, 22298 nonzeros
Variable types: 0 continuous, 430 integer (420 binary)
Found heuristic solution: objective 7.0000000

Root relaxation: objective 2.000000e+01, 607 iterations, 0.06 seconds (0.06 work units)

    Nodes    |    Current Node    |     Objective Bounds      |     Work
 Expl Unexpl |  Obj  Depth IntInf | Incumbent    BestBd   Gap | It/Node Time

     0     0   20.00000    0   60    7.00000   20.00000   186%     -    0s
H    0     0                       9.0000000   20.00000   122%     -    0s
H    0     0                      11.0000000   20.00000  81.8%     -    0s
H    0     0                      13.0000000   20.00000  53.8%     -    0s
     0     0   20.00000    0   62   13.00000   20.00000  53.8%     -    0s
     0     0   20.00000    0   62   13.00000   20.00000  53.8%     -    0s
     0     0   20.00000    0   66   13.00000   20.00000  53.8%     -    0s
     0     0   20.00000    0   47   13.00000   20.00000  53.8%     -    0s
H    0     0                      14.0000000   20.00000  42.9%     -    0s
     0     0   20.00000    0   45   14.00000   20.00000  42.9%     -    0s
     0     0   20.00000    0   45   14.00000   20.00000  42.9%     -    0s
     0     0   20.00000    0   45   14.00000   20.00000  42.9%     -    0s
     0     0   20.00000    0   65   14.00000   20.00000  42.9%     -    0s
     0     0   20.00000    0   48   14.00000   20.00000  42.9%     -    0s
     0     0   20.00000    0   50   14.00000   20.00000  42.9%     -    0s
     0     0   20.00000    0   45   14.00000   20.00000  42.9%     -    0s
     0     0   20.00000    0   48   14.00000   20.00000  42.9%     -    1s
     0     0   20.00000    0   44   14.00000   20.00000  42.9%     -    1s
     0     0   20.00000    0   44   14.00000   20.00000  42.9%     -    1s
     0     0   20.00000    0   62   14.00000   20.00000  42.9%     -    1s
     0     0   20.00000    0   44   14.00000   20.00000  42.9%     -    1s
     0     0   20.00000    0   44   14.00000   20.00000  42.9%     -    1s
     0     0   20.00000    0   44   14.00000   20.00000  42.9%     -    1s
     0     2   20.00000    0   44   14.00000   20.00000  42.9%     -    1s
  1004   381 infeasible   17        14.00000   19.00000  35.7%   182    5s
  3726   533 infeasible   14        14.00000   17.35979  24.0%   220   10s

Cutting planes:
  Cover: 59
  Inf proof: 53

Explored 5966 nodes (1468936 simplex iterations) in 14.24 seconds (23.09 work units)
Thread count was 16 (of 16 available processors)

Solution count 6: 14 13 11 ... 5

Optimal solution found (tolerance 1.00e-04)
Best objective 1.400000000000e+01, best bound 1.400000000000e+01, gap 0.0000%

Wrote result file '/root/bgw/data/results/2026_03_23_16_05_55_set_exp_3_exp_3_n029_c005_g001_max.sol'

